(set-logic SLIA)
(constraint (= (f "This is a <string>, It should be <changed> to <a> number.") "This is a string, It should be changed to a number."))
(constraint (= (f "a < 4 and a > 0") "a  4 and a  0"))
(check-synth)
(synth-fun f ((_arg_0 String)) String ((Start String (ntString)) (ntString String ((Str A) (str.++ ntString A))) (A String ((Str ConstString) (SubStr X P P))) (P Int ((Int ntInt) (Pos X Pattern ntInt Direction))) (Pattern String ((Str ConstString) "ProperCase" "CAPS" "lowercase" "Digits" "Alphabets" "Alphanumeric" "WhiteSpace" "ProperCaseWSpaces" "CAPSWSpaces" "lowercaseSpaces" "AlphabetsWSpaces")) (X String (_arg_0)) (ConstString String (_arg_0 "" " " "<" ">")) (Direction Int (0 1)) (ntInt Int (-5 -4 -3 -2 -1 0 1 2 3 4 5))))
